#p MP2(Full)/STO-3G NMR

[Title]

0 1
N  0.  0.  0.
H  0.  1.  0.2
H  0.1 0.3 1.5
H  0.9 0.4 -.2


