#p QCISD(T)/cc-pVTZ nosymm

C2H4-eng

  0  1
C,-0.668188207,0.000000075,-0.0000028526
C,0.668188207,0.0000000727,0.0000028526
H,-1.2382848349,-0.0000000262,-0.9232789581
H,-1.2382926466,-0.0000000483,0.9232684342
H,1.2382848349,-0.0000000255,0.9232789581
H,1.2382926466,-0.0000000477,-0.9232684342

