%nproc=4
#t Freq(Anharmonic) NoSymm Temperature=2500 IOp(7/33=3)

[No Title]

0 1
N  0.000000    0.000000    0.000000
H  0.000000    0.000000    0.940000
H  1.006874    0.000000   -0.260395
H -1.037114   -0.277894   -0.640054

