%nproc=4
%chk=C2O4H.chk
#p Freq nosymm IOp(7/33=0)

[No Title]

  1  1
C 0    0.850702   -0.112103   -0.532292
O 0   -0.246033   -0.349282    0.196111
C 0    2.176493   -0.433377    0.163975
O 0    1.903304   -1.242170    1.197520
O 0    0.600473    0.323693   -1.659263
O 0    2.988648    0.457163    0.245259
H 0    0.486373   -1.342560    1.234612

