#p ONIOM(MP2(Full)/6-31G:HF/6-31G)=InputFiles NoSymm
 
2-layer ONIOM, modified from Gaussian keyword list
 
0 1 0 1 0 1
  F     -1.041506214819     0.000000000000    -2.126109488809 L
  F     -2.033681935634    -1.142892069126    -0.412218766901 L
  F     -2.033681935634     1.142892069126    -0.412218766901 L
  C     -1.299038105677     0.000000000000    -0.750000000000 L H 5 0.7 0.8
  C      0.000000000000     0.000000000000     0.000000000000 H
  H      0.000000000000     0.000000000000     1.100000000000 H
  O      1.125833024920     0.000000000000    -0.650000000000 H

