#p UMP2(Full)/6-31G nosymm

H2O

1 2
O  0.  0.  0.
H  1.  0.  0.
H  0.  1.  0.
