#p RMP4(Full)/6-31G nosymm SCF(VeryTight)

H2O2 MP4 Energy

0 1
O  0.0  0.0  0.0
O  0.0  0.0  1.5
H  1.0  0.0  0.0
H  0.0  0.7  1.0

